c 
c G(k,n,p) graph
c graph gen seed     : 29298
c number of vertices : 50
c max number of edges: 625
c number of classes  : 2
c edge density       : 0.300000
c edge probability   : 0.600000
c data structure     : dense
c
c           Graph Stats
c number of vertices  : 50
c nonisolated vertices: 50
c number of edges     : 383
c edge density        : 0.312653
c max degree          : 20
c avg degree          : 15.32
c min degree          : 11
p col 50 383
e 1 3
e 1 8
e 1 12
e 1 15
e 1 18
e 1 19
e 1 20
e 1 21
e 1 23
e 1 26
e 1 28
e 1 30
e 1 34
e 1 35
e 1 40
e 1 45
e 1 47
e 1 49
e 2 3
e 2 4
e 2 8
e 2 15
e 2 18
e 2 19
e 2 20
e 2 21
e 2 24
e 2 26
e 2 28
e 2 30
e 2 45
e 3 11
e 3 16
e 3 29
e 3 31
e 3 32
e 3 36
e 3 37
e 3 42
e 3 43
e 3 48
e 3 50
e 4 6
e 4 7
e 4 9
e 4 14
e 4 17
e 4 22
e 4 25
e 4 27
e 4 29
e 4 31
e 4 32
e 4 36
e 4 39
e 4 41
e 4 42
e 4 43
e 4 44
e 4 50
e 5 8
e 5 10
e 5 13
e 5 19
e 5 20
e 5 23
e 5 24
e 5 33
e 5 34
e 5 35
e 5 46
e 5 47
e 5 49
e 6 10
e 6 13
e 6 18
e 6 19
e 6 20
e 6 21
e 6 26
e 6 34
e 6 40
e 6 46
e 6 47
e 6 49
e 7 8
e 7 10
e 7 12
e 7 13
e 7 18
e 7 20
e 7 21
e 7 23
e 7 26
e 7 28
e 7 30
e 7 33
e 7 45
e 7 46
e 7 49
e 8 9
e 8 14
e 8 16
e 8 17
e 8 22
e 8 25
e 8 37
e 8 39
e 8 44
e 8 48
e 8 50
e 9 10
e 9 12
e 9 18
e 9 19
e 9 20
e 9 21
e 9 26
e 9 34
e 9 38
e 9 40
e 9 45
e 9 47
e 9 49
e 10 11
e 10 14
e 10 17
e 10 25
e 10 29
e 10 31
e 10 32
e 10 37
e 10 39
e 10 42
e 10 43
e 10 44
e 11 13
e 11 18
e 11 19
e 11 24
e 11 28
e 11 34
e 11 35
e 11 38
e 11 40
e 11 45
e 11 46
e 11 47
e 11 49
e 12 14
e 12 17
e 12 22
e 12 25
e 12 37
e 12 39
e 12 41
e 12 43
e 12 50
e 13 16
e 13 17
e 13 22
e 13 25
e 13 29
e 13 31
e 13 32
e 13 36
e 13 39
e 13 41
e 13 44
e 13 48
e 13 50
e 14 15
e 14 18
e 14 19
e 14 20
e 14 23
e 14 24
e 14 28
e 14 30
e 14 33
e 14 34
e 14 35
e 14 38
e 14 45
e 15 16
e 15 25
e 15 27
e 15 29
e 15 32
e 15 37
e 15 41
e 15 43
e 15 48
e 16 18
e 16 19
e 16 20
e 16 23
e 16 24
e 16 26
e 16 33
e 16 35
e 16 40
e 16 46
e 16 47
e 16 49
e 17 18
e 17 19
e 17 21
e 17 24
e 17 26
e 17 33
e 17 34
e 17 45
e 17 46
e 17 49
e 18 22
e 18 32
e 18 36
e 18 37
e 18 39
e 18 41
e 18 42
e 18 48
e 19 27
e 19 29
e 19 31
e 19 32
e 19 37
e 19 41
e 19 43
e 19 50
e 20 27
e 20 29
e 20 31
e 20 32
e 20 36
e 20 37
e 20 41
e 20 42
e 21 25
e 21 27
e 21 31
e 21 36
e 21 37
e 21 39
e 21 44
e 21 48
e 21 50
e 22 24
e 22 26
e 22 28
e 22 34
e 22 38
e 22 45
e 22 47
e 23 29
e 23 31
e 23 37
e 23 42
e 23 43
e 23 50
e 24 25
e 24 27
e 24 37
e 24 39
e 24 41
e 24 42
e 24 44
e 24 48
e 25 28
e 25 30
e 25 33
e 25 38
e 25 40
e 25 47
e 26 29
e 26 31
e 26 32
e 26 36
e 26 37
e 26 39
e 26 41
e 26 42
e 26 43
e 26 44
e 26 48
e 26 50
e 27 28
e 27 30
e 27 33
e 27 34
e 27 35
e 27 38
e 27 45
e 27 46
e 28 29
e 28 31
e 28 36
e 28 37
e 28 39
e 28 41
e 28 43
e 28 44
e 28 48
e 28 50
e 29 30
e 29 40
e 29 45
e 29 46
e 29 49
e 30 31
e 30 36
e 30 37
e 30 39
e 30 42
e 30 44
e 30 48
e 31 34
e 31 38
e 31 49
e 32 33
e 32 34
e 32 35
e 33 36
e 33 37
e 33 39
e 33 41
e 33 44
e 33 50
e 34 37
e 34 39
e 34 41
e 34 42
e 34 43
e 34 44
e 34 50
e 35 36
e 35 41
e 35 42
e 35 43
e 35 48
e 36 38
e 36 40
e 36 45
e 36 49
e 37 38
e 37 45
e 37 46
e 37 49
e 38 39
e 38 42
e 38 43
e 38 44
e 38 50
e 39 40
e 39 45
e 39 46
e 39 47
e 40 41
e 40 42
e 40 43
e 40 44
e 40 50
e 41 45
e 41 46
e 41 49
e 42 45
e 42 46
e 42 47
e 42 49
e 43 45
e 43 46
e 43 47
e 43 49
e 44 45
e 44 46
e 44 49
e 45 50
e 46 48
e 46 50
e 47 50
e 48 49
e 49 50
